Route #1: 1 32 9 16 29 28 20 25 1
Route #2: 1 26 31 24 41 30 39 10 1
Route #3: 1 5 35 40 18 13 4 7 23 1
Route #4: 1 8 6 22 33 38 43 12 11 27 1
Route #5: 1 34 17 21 19 36 2 44 1
Route #6: 1 42 15 14 37 3 1
cost: 999
